
  18    0


   0  10 2 3 4 5 7 8 14 15 16 17 
   3   3 13 10 9 
   9   2 12 9 
  10   1 6 
   9   1 6 
   7   1 9 
   2   1 11 
   7   1 10 
  10   1 18
   5   1 18
   4   1 18
   7   1 18
   9   1 18
   7   1 18
   7   1 18
   3   1 18
   8   1 18
   0   0 
